data;
set K:= K1 K2 K3 K4 K5 K6 K7 K8 K9 K10 K11 K12 K13 K14 K15 ;

set F:= F1 F2 F3 ;

set Q:= Q1 Q2 ;

param T:= 45;
param V: 
	K1  K2  K3  K4  K5  K6  K7  K8  K9  K10 K11 K12 K13 K14 K15 :=
Q1	1   1   1   1   1   1   1   1   1   0   0   0   0   0   0   
Q2	0   0   0   0   0   0   0   0   0   1   1   1   1   1   1   
; # if resorce k is of type q

param TF:= 
K1 6
K2 6
K3 6
K4 6
K5 6
K6 6
K7 6
K8 6
K9 6
K10 12
K11 12
K12 12
K13 12
K14 12
K15 12
; # number of continuous time slots resource can fly

param TR:= 
K1 2
K2 2
K3 2
K4 2
K5 2
K6 2
K7 2
K8 2
K9 2
K10 4
K11 4
K12 4
K13 4
K14 4
K15 4
; #  number of continuous time slots resource k needs to rest between flights

param P:= 
K1 36
K2 36
K3 36
K4 36
K5 36
K6 36
K7 36
K8 36
K9 36
K10 36
K11 36
K12 36
K13 36
K14 36
K15 36
; #  number of continuous time slots a pilot can be present including rest times for resource k 

param N:= 
K1 4
K2 4
K3 4
K4 4
K5 4
K6 4
K7 4
K8 4
K9 4
K10 2
K11 1
K12 2
K13 2
K14 2
K15 2
; # max number of flights resource k can fly in the total time period

param A: 
	K1  K2  K3  K4  K5  K6  K7  K8  K9  K10 K11 K12 K13 K14 K15 :=
1	1   1   1   1   1   1   1   1   1   1   0   1   1   1   1   
2	1   1   1   1   1   1   1   1   1   1   0   1   1   1   1   
3	1   1   1   1   1   1   1   1   1   1   0   1   1   1   1   
4	1   1   1   1   1   1   1   1   1   1   0   1   1   1   1   
5	1   1   1   1   1   1   1   1   1   1   0   1   1   1   1   
6	1   1   1   1   1   1   1   1   1   1   0   1   1   1   1   
7	1   1   1   1   1   1   1   1   1   1   0   1   1   1   1   
8	1   1   1   1   1   1   1   1   1   1   0   1   1   1   1   
9	1   1   1   1   1   1   1   1   1   1   0   1   1   1   1   
10	1   1   1   1   1   1   1   1   1   1   0   1   1   1   1   
11	1   1   1   1   1   1   1   1   1   1   0   1   1   1   1   
12	1   1   1   1   1   1   1   1   1   1   0   1   1   1   1   
13	1   1   1   1   1   1   1   1   1   1   0   1   1   1   1   
14	1   1   1   1   1   1   1   1   1   1   0   1   1   1   1   
15	1   1   1   1   1   1   1   1   1   1   0   1   1   1   1   
16	1   1   1   1   1   1   1   1   1   1   0   1   1   1   1   
17	1   1   1   1   1   1   1   1   1   1   0   1   1   1   1   
18	1   1   1   1   1   1   1   1   1   1   1   1   1   1   1   
19	1   1   1   1   1   1   1   1   1   1   1   1   1   1   1   
20	1   1   1   1   1   1   1   1   1   1   1   1   1   1   1   
21	1   1   1   1   1   1   1   1   1   1   1   1   1   1   1   
22	1   1   1   1   1   1   1   1   1   1   1   1   1   1   1   
23	1   1   1   1   1   1   1   1   1   1   1   1   1   1   1   
24	1   1   1   1   1   1   1   1   1   1   1   1   1   1   1   
25	1   1   1   1   1   1   1   1   1   1   1   1   1   1   1   
26	1   1   1   1   1   1   1   1   1   1   1   1   1   1   1   
27	1   1   1   1   1   1   1   1   1   1   1   1   1   1   1   
28	1   1   1   1   1   1   1   1   1   1   1   1   1   1   1   
29	1   1   1   1   1   1   1   1   1   1   1   1   1   1   1   
30	1   1   1   1   1   1   1   1   1   1   1   1   1   1   1   
31	1   1   1   1   1   1   1   1   1   1   1   1   1   1   1   
32	1   1   1   1   1   1   1   1   1   1   1   1   1   1   1   
33	1   1   1   1   1   1   1   1   1   1   1   1   1   1   1   
34	1   1   1   1   1   1   1   1   1   1   1   1   1   1   1   
35	1   1   1   1   1   1   1   1   1   1   1   1   1   1   1   
36	1   1   1   1   1   1   1   1   1   1   1   1   1   1   1   
37	1   1   1   1   1   1   1   1   1   1   1   1   1   1   1   
38	1   1   1   1   1   1   1   1   1   1   1   1   1   1   1   
39	1   1   1   1   1   1   1   1   1   1   1   1   1   1   1   
40	1   1   1   1   1   1   1   1   1   1   1   1   1   1   1   
41	1   1   1   1   1   1   1   1   1   1   1   1   1   1   1   
42	1   1   1   1   1   1   1   1   1   1   1   1   1   1   1   
43	1   1   1   1   1   1   1   1   1   1   1   1   1   1   1   
44	1   1   1   1   1   1   1   1   1   1   1   1   1   1   1   
45	1   1   1   1   1   1   1   1   1   1   1   1   1   1   1   
; # availability of resorce k in time slot t

param B: 
	F1  F2  F3  :=
Q1	0   0   0   
Q2	0   0   0   
; # if front f requires resources of type q

param U: 
	F1  F2  F3  :=
K1	0   0   0   
K2	0   0   0   
K3	0   0   0   
K4	0   0   0   
K5	0   0   0   
K6	0   0   0   
K7	0   0   0   
K8	0   0   0   
K9	0   0   0   
K10	0   0   0   
K11	1   1   1   
K12	0   0   0   
K13	2   2   2   
K14	1   1   1   
K15	0   0   0   
; # transit time of resource

param C:= 
K1 900
K2 900
K3 900
K4 900
K5 900
K6 1500
K7 1500
K8 4500
K9 4500
K10 5500
K11 5500
K12 5500
K13 5500
K14 5500
K15 5500
; #  water capacity of resource k

param S:= 
F1 7
F2 8
F3 8
; # max number of resources that can fly at front f in the same time slot

param D:= 

[*,*,F1 ]:  K1    K2    K3    K4    K5    K6    K7    K8    K9    K10   K11   K12   K13   K14   K15   :=
1           1.97  1.97  1.97  1.97  1.97  1.97  1.97  1.57  1.57  1.18  1.18  1.18  1.18  1.18  1.18  
2           1.97  1.97  1.97  1.97  1.97  1.97  1.97  1.57  1.57  1.18  1.18  1.18  1.18  1.18  1.18  
3           1.97  1.97  1.97  1.97  1.97  1.97  1.97  1.57  1.57  1.18  1.18  1.18  1.18  1.18  1.18  
4           1.97  1.97  1.97  1.97  1.97  1.97  1.97  1.57  1.57  1.18  1.18  1.18  1.18  1.18  1.18  
5           1.97  1.97  1.97  1.97  1.97  1.97  1.97  1.57  1.57  1.18  1.18  1.18  1.18  1.18  1.18  
6           1.97  1.97  1.97  1.97  1.97  1.97  1.97  1.57  1.57  1.18  1.18  1.18  1.18  1.18  1.18  
7           1.97  1.97  1.97  1.97  1.97  1.97  1.97  1.57  1.57  1.18  1.18  1.18  1.18  1.18  1.18  
8           1.97  1.97  1.97  1.97  1.97  1.97  1.97  1.57  1.57  1.18  1.18  1.18  1.18  1.18  1.18  
9           1.97  1.97  1.97  1.97  1.97  1.97  1.97  1.57  1.57  1.18  1.18  1.18  1.18  1.18  1.18  
10          1.97  1.97  1.97  1.97  1.97  1.97  1.97  1.57  1.57  1.18  1.18  1.18  1.18  1.18  1.18  
11          1.97  1.97  1.97  1.97  1.97  1.97  1.97  1.57  1.57  1.18  1.18  1.18  1.18  1.18  1.18  
12          1.97  1.97  1.97  1.97  1.97  1.97  1.97  1.57  1.57  1.18  1.18  1.18  1.18  1.18  1.18  
13          1.97  1.97  1.97  1.97  1.97  1.97  1.97  1.57  1.57  1.18  1.18  1.18  1.18  1.18  1.18  
14          1.97  1.97  1.97  1.97  1.97  1.97  1.97  1.57  1.57  1.18  1.18  1.18  1.18  1.18  1.18  
15          1.97  1.97  1.97  1.97  1.97  1.97  1.97  1.57  1.57  1.18  1.18  1.18  1.18  1.18  1.18  
16          1.97  1.97  1.97  1.97  1.97  1.97  1.97  1.57  1.57  1.18  1.18  1.18  1.18  1.18  1.18  
17          1.97  1.97  1.97  1.97  1.97  1.97  1.97  1.57  1.57  1.18  1.18  1.18  1.18  1.18  1.18  
18          1.97  1.97  1.97  1.97  1.97  1.97  1.97  1.57  1.57  1.18  1.18  1.18  1.18  1.18  1.18  
19          1.97  1.97  1.97  1.97  1.97  1.97  1.97  1.57  1.57  1.18  1.18  1.18  1.18  1.18  1.18  
20          1.97  1.97  1.97  1.97  1.97  1.97  1.97  1.57  1.57  1.18  1.18  1.18  1.18  1.18  1.18  
21          1.97  1.97  1.97  1.97  1.97  1.97  1.97  1.57  1.57  1.18  1.18  1.18  1.18  1.18  1.18  
22          1.97  1.97  1.97  1.97  1.97  1.97  1.97  1.57  1.57  1.18  1.18  1.18  1.18  1.18  1.18  
23          1.97  1.97  1.97  1.97  1.97  1.97  1.97  1.57  1.57  1.18  1.18  1.18  1.18  1.18  1.18  
24          1.97  1.97  1.97  1.97  1.97  1.97  1.97  1.57  1.57  1.18  1.18  1.18  1.18  1.18  1.18  
25          1.87  1.87  1.87  1.87  1.87  1.87  1.87  1.49  1.49  1.12  1.12  1.12  1.12  1.12  1.12  
26          1.87  1.87  1.87  1.87  1.87  1.87  1.87  1.49  1.49  1.12  1.12  1.12  1.12  1.12  1.12  
27          1.87  1.87  1.87  1.87  1.87  1.87  1.87  1.49  1.49  1.12  1.12  1.12  1.12  1.12  1.12  
28          1.87  1.87  1.87  1.87  1.87  1.87  1.87  1.49  1.49  1.12  1.12  1.12  1.12  1.12  1.12  
29          1.87  1.87  1.87  1.87  1.87  1.87  1.87  1.49  1.49  1.12  1.12  1.12  1.12  1.12  1.12  
30          1.87  1.87  1.87  1.87  1.87  1.87  1.87  1.49  1.49  1.12  1.12  1.12  1.12  1.12  1.12  
31          1.87  1.87  1.87  1.87  1.87  1.87  1.87  1.49  1.49  1.12  1.12  1.12  1.12  1.12  1.12  
32          1.87  1.87  1.87  1.87  1.87  1.87  1.87  1.49  1.49  1.12  1.12  1.12  1.12  1.12  1.12  
33          1.87  1.87  1.87  1.87  1.87  1.87  1.87  1.49  1.49  1.12  1.12  1.12  1.12  1.12  1.12  
34          1.97  1.97  1.97  1.97  1.97  1.97  1.97  1.57  1.57  1.18  1.18  1.18  1.18  1.18  1.18  
35          1.97  1.97  1.97  1.97  1.97  1.97  1.97  1.57  1.57  1.18  1.18  1.18  1.18  1.18  1.18  
36          1.97  1.97  1.97  1.97  1.97  1.97  1.97  1.57  1.57  1.18  1.18  1.18  1.18  1.18  1.18  
37          1.97  1.97  1.97  1.97  1.97  1.97  1.97  1.57  1.57  1.18  1.18  1.18  1.18  1.18  1.18  
38          1.97  1.97  1.97  1.97  1.97  1.97  1.97  1.57  1.57  1.18  1.18  1.18  1.18  1.18  1.18  
39          1.97  1.97  1.97  1.97  1.97  1.97  1.97  1.57  1.57  1.18  1.18  1.18  1.18  1.18  1.18  
40          1.97  1.97  1.97  1.97  1.97  1.97  1.97  1.57  1.57  1.18  1.18  1.18  1.18  1.18  1.18  
41          1.97  1.97  1.97  1.97  1.97  1.97  1.97  1.57  1.57  1.18  1.18  1.18  1.18  1.18  1.18  
42          1.97  1.97  1.97  1.97  1.97  1.97  1.97  1.57  1.57  1.18  1.18  1.18  1.18  1.18  1.18  
43          1.97  1.97  1.97  1.97  1.97  1.97  1.97  1.57  1.57  1.18  1.18  1.18  1.18  1.18  1.18  
44          1.97  1.97  1.97  1.97  1.97  1.97  1.97  1.57  1.57  1.18  1.18  1.18  1.18  1.18  1.18  
45          1.97  1.97  1.97  1.97  1.97  1.97  1.97  1.57  1.57  1.18  1.18  1.18  1.18  1.18  1.18  

[*,*,F2 ]:  K1    K2    K3    K4    K5    K6    K7    K8    K9    K10   K11   K12   K13   K14   K15   :=
1           1.77  1.77  1.77  1.77  1.77  1.77  1.77  1.41  1.41  1.06  1.06  1.06  1.06  1.06  1.06  
2           1.77  1.77  1.77  1.77  1.77  1.77  1.77  1.41  1.41  1.06  1.06  1.06  1.06  1.06  1.06  
3           1.77  1.77  1.77  1.77  1.77  1.77  1.77  1.41  1.41  1.06  1.06  1.06  1.06  1.06  1.06  
4           1.77  1.77  1.77  1.77  1.77  1.77  1.77  1.41  1.41  1.06  1.06  1.06  1.06  1.06  1.06  
5           1.77  1.77  1.77  1.77  1.77  1.77  1.77  1.41  1.41  1.06  1.06  1.06  1.06  1.06  1.06  
6           1.77  1.77  1.77  1.77  1.77  1.77  1.77  1.41  1.41  1.06  1.06  1.06  1.06  1.06  1.06  
7           1.77  1.77  1.77  1.77  1.77  1.77  1.77  1.41  1.41  1.06  1.06  1.06  1.06  1.06  1.06  
8           1.77  1.77  1.77  1.77  1.77  1.77  1.77  1.41  1.41  1.06  1.06  1.06  1.06  1.06  1.06  
9           1.77  1.77  1.77  1.77  1.77  1.77  1.77  1.41  1.41  1.06  1.06  1.06  1.06  1.06  1.06  
10          1.77  1.77  1.77  1.77  1.77  1.77  1.77  1.41  1.41  1.06  1.06  1.06  1.06  1.06  1.06  
11          1.77  1.77  1.77  1.77  1.77  1.77  1.77  1.41  1.41  1.06  1.06  1.06  1.06  1.06  1.06  
12          1.77  1.77  1.77  1.77  1.77  1.77  1.77  1.41  1.41  1.06  1.06  1.06  1.06  1.06  1.06  
13          1.77  1.77  1.77  1.77  1.77  1.77  1.77  1.41  1.41  1.06  1.06  1.06  1.06  1.06  1.06  
14          1.77  1.77  1.77  1.77  1.77  1.77  1.77  1.41  1.41  1.06  1.06  1.06  1.06  1.06  1.06  
15          1.77  1.77  1.77  1.77  1.77  1.77  1.77  1.41  1.41  1.06  1.06  1.06  1.06  1.06  1.06  
16          1.77  1.77  1.77  1.77  1.77  1.77  1.77  1.41  1.41  1.06  1.06  1.06  1.06  1.06  1.06  
17          1.77  1.77  1.77  1.77  1.77  1.77  1.77  1.41  1.41  1.06  1.06  1.06  1.06  1.06  1.06  
18          1.77  1.77  1.77  1.77  1.77  1.77  1.77  1.41  1.41  1.06  1.06  1.06  1.06  1.06  1.06  
19          1.77  1.77  1.77  1.77  1.77  1.77  1.77  1.41  1.41  1.06  1.06  1.06  1.06  1.06  1.06  
20          1.77  1.77  1.77  1.77  1.77  1.77  1.77  1.41  1.41  1.06  1.06  1.06  1.06  1.06  1.06  
21          1.77  1.77  1.77  1.77  1.77  1.77  1.77  1.41  1.41  1.06  1.06  1.06  1.06  1.06  1.06  
22          1.77  1.77  1.77  1.77  1.77  1.77  1.77  1.41  1.41  1.06  1.06  1.06  1.06  1.06  1.06  
23          1.77  1.77  1.77  1.77  1.77  1.77  1.77  1.41  1.41  1.06  1.06  1.06  1.06  1.06  1.06  
24          1.77  1.77  1.77  1.77  1.77  1.77  1.77  1.41  1.41  1.06  1.06  1.06  1.06  1.06  1.06  
25          1.68  1.68  1.68  1.68  1.68  1.68  1.68  1.34  1.34  1.01  1.01  1.01  1.01  1.01  1.01  
26          1.68  1.68  1.68  1.68  1.68  1.68  1.68  1.34  1.34  1.01  1.01  1.01  1.01  1.01  1.01  
27          1.68  1.68  1.68  1.68  1.68  1.68  1.68  1.34  1.34  1.01  1.01  1.01  1.01  1.01  1.01  
28          1.68  1.68  1.68  1.68  1.68  1.68  1.68  1.34  1.34  1.01  1.01  1.01  1.01  1.01  1.01  
29          1.68  1.68  1.68  1.68  1.68  1.68  1.68  1.34  1.34  1.01  1.01  1.01  1.01  1.01  1.01  
30          1.68  1.68  1.68  1.68  1.68  1.68  1.68  1.34  1.34  1.01  1.01  1.01  1.01  1.01  1.01  
31          1.68  1.68  1.68  1.68  1.68  1.68  1.68  1.34  1.34  1.01  1.01  1.01  1.01  1.01  1.01  
32          1.68  1.68  1.68  1.68  1.68  1.68  1.68  1.34  1.34  1.01  1.01  1.01  1.01  1.01  1.01  
33          1.68  1.68  1.68  1.68  1.68  1.68  1.68  1.34  1.34  1.01  1.01  1.01  1.01  1.01  1.01  
34          1.77  1.77  1.77  1.77  1.77  1.77  1.77  1.41  1.41  1.06  1.06  1.06  1.06  1.06  1.06  
35          1.77  1.77  1.77  1.77  1.77  1.77  1.77  1.41  1.41  1.06  1.06  1.06  1.06  1.06  1.06  
36          1.77  1.77  1.77  1.77  1.77  1.77  1.77  1.41  1.41  1.06  1.06  1.06  1.06  1.06  1.06  
37          1.77  1.77  1.77  1.77  1.77  1.77  1.77  1.41  1.41  1.06  1.06  1.06  1.06  1.06  1.06  
38          1.77  1.77  1.77  1.77  1.77  1.77  1.77  1.41  1.41  1.06  1.06  1.06  1.06  1.06  1.06  
39          1.77  1.77  1.77  1.77  1.77  1.77  1.77  1.41  1.41  1.06  1.06  1.06  1.06  1.06  1.06  
40          1.77  1.77  1.77  1.77  1.77  1.77  1.77  1.41  1.41  1.06  1.06  1.06  1.06  1.06  1.06  
41          1.77  1.77  1.77  1.77  1.77  1.77  1.77  1.41  1.41  1.06  1.06  1.06  1.06  1.06  1.06  
42          1.77  1.77  1.77  1.77  1.77  1.77  1.77  1.41  1.41  1.06  1.06  1.06  1.06  1.06  1.06  
43          1.77  1.77  1.77  1.77  1.77  1.77  1.77  1.41  1.41  1.06  1.06  1.06  1.06  1.06  1.06  
44          1.77  1.77  1.77  1.77  1.77  1.77  1.77  1.41  1.41  1.06  1.06  1.06  1.06  1.06  1.06  
45          1.77  1.77  1.77  1.77  1.77  1.77  1.77  1.41  1.41  1.06  1.06  1.06  1.06  1.06  1.06  

[*,*,F3 ]:  K1    K2    K3    K4    K5    K6    K7    K8    K9    K10   K11   K12   K13   K14   K15   :=
1           1.75  1.75  1.75  1.75  1.75  1.75  1.75  1.40  1.40  1.05  1.05  1.05  1.05  1.05  1.05  
2           1.75  1.75  1.75  1.75  1.75  1.75  1.75  1.40  1.40  1.05  1.05  1.05  1.05  1.05  1.05  
3           1.75  1.75  1.75  1.75  1.75  1.75  1.75  1.40  1.40  1.05  1.05  1.05  1.05  1.05  1.05  
4           1.75  1.75  1.75  1.75  1.75  1.75  1.75  1.40  1.40  1.05  1.05  1.05  1.05  1.05  1.05  
5           1.75  1.75  1.75  1.75  1.75  1.75  1.75  1.40  1.40  1.05  1.05  1.05  1.05  1.05  1.05  
6           1.75  1.75  1.75  1.75  1.75  1.75  1.75  1.40  1.40  1.05  1.05  1.05  1.05  1.05  1.05  
7           1.75  1.75  1.75  1.75  1.75  1.75  1.75  1.40  1.40  1.05  1.05  1.05  1.05  1.05  1.05  
8           1.75  1.75  1.75  1.75  1.75  1.75  1.75  1.40  1.40  1.05  1.05  1.05  1.05  1.05  1.05  
9           1.75  1.75  1.75  1.75  1.75  1.75  1.75  1.40  1.40  1.05  1.05  1.05  1.05  1.05  1.05  
10          1.75  1.75  1.75  1.75  1.75  1.75  1.75  1.40  1.40  1.05  1.05  1.05  1.05  1.05  1.05  
11          1.75  1.75  1.75  1.75  1.75  1.75  1.75  1.40  1.40  1.05  1.05  1.05  1.05  1.05  1.05  
12          1.75  1.75  1.75  1.75  1.75  1.75  1.75  1.40  1.40  1.05  1.05  1.05  1.05  1.05  1.05  
13          1.75  1.75  1.75  1.75  1.75  1.75  1.75  1.40  1.40  1.05  1.05  1.05  1.05  1.05  1.05  
14          1.75  1.75  1.75  1.75  1.75  1.75  1.75  1.40  1.40  1.05  1.05  1.05  1.05  1.05  1.05  
15          1.75  1.75  1.75  1.75  1.75  1.75  1.75  1.40  1.40  1.05  1.05  1.05  1.05  1.05  1.05  
16          1.75  1.75  1.75  1.75  1.75  1.75  1.75  1.40  1.40  1.05  1.05  1.05  1.05  1.05  1.05  
17          1.75  1.75  1.75  1.75  1.75  1.75  1.75  1.40  1.40  1.05  1.05  1.05  1.05  1.05  1.05  
18          1.75  1.75  1.75  1.75  1.75  1.75  1.75  1.40  1.40  1.05  1.05  1.05  1.05  1.05  1.05  
19          1.75  1.75  1.75  1.75  1.75  1.75  1.75  1.40  1.40  1.05  1.05  1.05  1.05  1.05  1.05  
20          1.75  1.75  1.75  1.75  1.75  1.75  1.75  1.40  1.40  1.05  1.05  1.05  1.05  1.05  1.05  
21          1.75  1.75  1.75  1.75  1.75  1.75  1.75  1.40  1.40  1.05  1.05  1.05  1.05  1.05  1.05  
22          1.75  1.75  1.75  1.75  1.75  1.75  1.75  1.40  1.40  1.05  1.05  1.05  1.05  1.05  1.05  
23          1.75  1.75  1.75  1.75  1.75  1.75  1.75  1.40  1.40  1.05  1.05  1.05  1.05  1.05  1.05  
24          1.75  1.75  1.75  1.75  1.75  1.75  1.75  1.40  1.40  1.05  1.05  1.05  1.05  1.05  1.05  
25          1.67  1.67  1.67  1.67  1.67  1.67  1.67  1.33  1.33  1.00  1.00  1.00  1.00  1.00  1.00  
26          1.67  1.67  1.67  1.67  1.67  1.67  1.67  1.33  1.33  1.00  1.00  1.00  1.00  1.00  1.00  
27          1.67  1.67  1.67  1.67  1.67  1.67  1.67  1.33  1.33  1.00  1.00  1.00  1.00  1.00  1.00  
28          1.67  1.67  1.67  1.67  1.67  1.67  1.67  1.33  1.33  1.00  1.00  1.00  1.00  1.00  1.00  
29          1.67  1.67  1.67  1.67  1.67  1.67  1.67  1.33  1.33  1.00  1.00  1.00  1.00  1.00  1.00  
30          1.67  1.67  1.67  1.67  1.67  1.67  1.67  1.33  1.33  1.00  1.00  1.00  1.00  1.00  1.00  
31          1.67  1.67  1.67  1.67  1.67  1.67  1.67  1.33  1.33  1.00  1.00  1.00  1.00  1.00  1.00  
32          1.67  1.67  1.67  1.67  1.67  1.67  1.67  1.33  1.33  1.00  1.00  1.00  1.00  1.00  1.00  
33          1.67  1.67  1.67  1.67  1.67  1.67  1.67  1.33  1.33  1.00  1.00  1.00  1.00  1.00  1.00  
34          1.75  1.75  1.75  1.75  1.75  1.75  1.75  1.40  1.40  1.05  1.05  1.05  1.05  1.05  1.05  
35          1.75  1.75  1.75  1.75  1.75  1.75  1.75  1.40  1.40  1.05  1.05  1.05  1.05  1.05  1.05  
36          1.75  1.75  1.75  1.75  1.75  1.75  1.75  1.40  1.40  1.05  1.05  1.05  1.05  1.05  1.05  
37          1.75  1.75  1.75  1.75  1.75  1.75  1.75  1.40  1.40  1.05  1.05  1.05  1.05  1.05  1.05  
38          1.75  1.75  1.75  1.75  1.75  1.75  1.75  1.40  1.40  1.05  1.05  1.05  1.05  1.05  1.05  
39          1.75  1.75  1.75  1.75  1.75  1.75  1.75  1.40  1.40  1.05  1.05  1.05  1.05  1.05  1.05  
40          1.75  1.75  1.75  1.75  1.75  1.75  1.75  1.40  1.40  1.05  1.05  1.05  1.05  1.05  1.05  
41          1.75  1.75  1.75  1.75  1.75  1.75  1.75  1.40  1.40  1.05  1.05  1.05  1.05  1.05  1.05  
42          1.75  1.75  1.75  1.75  1.75  1.75  1.75  1.40  1.40  1.05  1.05  1.05  1.05  1.05  1.05  
43          1.75  1.75  1.75  1.75  1.75  1.75  1.75  1.40  1.40  1.05  1.05  1.05  1.05  1.05  1.05  
44          1.75  1.75  1.75  1.75  1.75  1.75  1.75  1.40  1.40  1.05  1.05  1.05  1.05  1.05  1.05  
45          1.75  1.75  1.75  1.75  1.75  1.75  1.75  1.40  1.40  1.05  1.05  1.05  1.05  1.05  1.05  
; # downloads resource k can do at front f in time t if intermediate time slot

param E:= 

[*,*,F1 ]:  K1    K2    K3    K4    K5    K6    K7    K8    K9    K10   K11   K12   K13   K14   K15   :=
1           0.10  0.26  0.69  0.34  0.97  0.97  0.59  0.58  0.42  0.05  0.39  0.17  0.09  0.20  0.32  
2           0.10  0.26  0.69  0.34  0.97  0.97  0.59  0.58  0.42  0.05  0.39  0.17  0.09  0.20  0.32  
3           0.10  0.26  0.69  0.34  0.97  0.97  0.59  0.58  0.42  0.05  0.39  0.17  0.09  0.20  0.32  
4           0.10  0.26  0.69  0.34  0.97  0.97  0.59  0.58  0.42  0.05  0.39  0.17  0.09  0.20  0.32  
5           0.10  0.26  0.69  0.34  0.97  0.97  0.59  0.58  0.42  0.05  0.39  0.17  0.09  0.20  0.32  
6           0.10  0.26  0.69  0.34  0.97  0.97  0.59  0.58  0.42  0.05  0.39  0.17  0.09  0.20  0.32  
7           0.10  0.26  0.69  0.34  0.97  0.97  0.59  0.58  0.42  0.05  0.39  0.17  0.09  0.20  0.32  
8           0.10  0.26  0.69  0.34  0.97  0.97  0.59  0.58  0.42  0.05  0.39  0.17  0.09  0.20  0.32  
9           0.10  0.26  0.69  0.34  0.97  0.97  0.59  0.58  0.42  0.05  0.39  0.17  0.09  0.20  0.32  
10          0.10  0.26  0.69  0.34  0.97  0.97  0.59  0.58  0.42  0.05  0.39  0.17  0.09  0.20  0.32  
11          0.10  0.26  0.69  0.34  0.97  0.97  0.59  0.58  0.42  0.05  0.39  0.17  0.09  0.20  0.32  
12          0.10  0.26  0.69  0.34  0.97  0.97  0.59  0.58  0.42  0.05  0.39  0.17  0.09  0.20  0.32  
13          0.10  0.26  0.69  0.34  0.97  0.97  0.59  0.58  0.42  0.05  0.39  0.17  0.09  0.20  0.32  
14          0.10  0.26  0.69  0.34  0.97  0.97  0.59  0.58  0.42  0.05  0.39  0.17  0.09  0.20  0.32  
15          0.10  0.26  0.69  0.34  0.97  0.97  0.59  0.58  0.42  0.05  0.39  0.17  0.09  0.20  0.32  
16          0.10  0.26  0.69  0.34  0.97  0.97  0.59  0.58  0.42  0.05  0.39  0.17  0.09  0.20  0.32  
17          0.10  0.26  0.69  0.34  0.97  0.97  0.59  0.58  0.42  0.05  0.39  0.17  0.09  0.20  0.32  
18          0.10  0.26  0.69  0.34  0.97  0.97  0.59  0.58  0.42  0.05  0.39  0.17  0.09  0.20  0.32  
19          0.10  0.26  0.69  0.34  0.97  0.97  0.59  0.58  0.42  0.05  0.39  0.17  0.09  0.20  0.32  
20          0.10  0.26  0.69  0.34  0.97  0.97  0.59  0.58  0.42  0.05  0.39  0.17  0.09  0.20  0.32  
21          0.10  0.26  0.69  0.34  0.97  0.97  0.59  0.58  0.42  0.05  0.39  0.17  0.09  0.20  0.32  
22          0.10  0.26  0.69  0.34  0.97  0.97  0.59  0.58  0.42  0.05  0.39  0.17  0.09  0.20  0.32  
23          0.10  0.26  0.69  0.34  0.97  0.97  0.59  0.58  0.42  0.05  0.39  0.17  0.09  0.20  0.32  
24          0.10  0.26  0.69  0.34  0.97  0.97  0.59  0.58  0.42  0.05  0.39  0.17  0.09  0.20  0.32  
25          0.09  0.24  0.66  0.32  0.92  0.92  0.56  0.55  0.40  0.04  0.37  0.16  0.09  0.19  0.30  
26          0.09  0.24  0.66  0.32  0.92  0.92  0.56  0.55  0.40  0.04  0.37  0.16  0.09  0.19  0.30  
27          0.09  0.24  0.66  0.32  0.92  0.92  0.56  0.55  0.40  0.04  0.37  0.16  0.09  0.19  0.30  
28          0.09  0.24  0.66  0.32  0.92  0.92  0.56  0.55  0.40  0.04  0.37  0.16  0.09  0.19  0.30  
29          0.09  0.24  0.66  0.32  0.92  0.92  0.56  0.55  0.40  0.04  0.37  0.16  0.09  0.19  0.30  
30          0.09  0.24  0.66  0.32  0.92  0.92  0.56  0.55  0.40  0.04  0.37  0.16  0.09  0.19  0.30  
31          0.09  0.24  0.66  0.32  0.92  0.92  0.56  0.55  0.40  0.04  0.37  0.16  0.09  0.19  0.30  
32          0.09  0.24  0.66  0.32  0.92  0.92  0.56  0.55  0.40  0.04  0.37  0.16  0.09  0.19  0.30  
33          0.09  0.24  0.66  0.32  0.92  0.92  0.56  0.55  0.40  0.04  0.37  0.16  0.09  0.19  0.30  
34          0.10  0.26  0.69  0.34  0.97  0.97  0.59  0.58  0.42  0.05  0.39  0.17  0.09  0.20  0.32  
35          0.10  0.26  0.69  0.34  0.97  0.97  0.59  0.58  0.42  0.05  0.39  0.17  0.09  0.20  0.32  
36          0.10  0.26  0.69  0.34  0.97  0.97  0.59  0.58  0.42  0.05  0.39  0.17  0.09  0.20  0.32  
37          0.10  0.26  0.69  0.34  0.97  0.97  0.59  0.58  0.42  0.05  0.39  0.17  0.09  0.20  0.32  
38          0.10  0.26  0.69  0.34  0.97  0.97  0.59  0.58  0.42  0.05  0.39  0.17  0.09  0.20  0.32  
39          0.10  0.26  0.69  0.34  0.97  0.97  0.59  0.58  0.42  0.05  0.39  0.17  0.09  0.20  0.32  
40          0.10  0.26  0.69  0.34  0.97  0.97  0.59  0.58  0.42  0.05  0.39  0.17  0.09  0.20  0.32  
41          0.10  0.26  0.69  0.34  0.97  0.97  0.59  0.58  0.42  0.05  0.39  0.17  0.09  0.20  0.32  
42          0.10  0.26  0.69  0.34  0.97  0.97  0.59  0.58  0.42  0.05  0.39  0.17  0.09  0.20  0.32  
43          0.10  0.26  0.69  0.34  0.97  0.97  0.59  0.58  0.42  0.05  0.39  0.17  0.09  0.20  0.32  
44          0.10  0.26  0.69  0.34  0.97  0.97  0.59  0.58  0.42  0.05  0.39  0.17  0.09  0.20  0.32  
45          0.10  0.26  0.69  0.34  0.97  0.97  0.59  0.58  0.42  0.05  0.39  0.17  0.09  0.20  0.32  

[*,*,F2 ]:  K1    K2    K3    K4    K5    K6    K7    K8    K9    K10   K11   K12   K13   K14   K15   :=
1           0.23  0.28  0.64  0.28  0.73  0.87  0.53  0.59  0.41  0.01  0.34  0.17  0.05  0.16  0.32  
2           0.23  0.28  0.64  0.28  0.73  0.87  0.53  0.59  0.41  0.01  0.34  0.17  0.05  0.16  0.32  
3           0.23  0.28  0.64  0.28  0.73  0.87  0.53  0.59  0.41  0.01  0.34  0.17  0.05  0.16  0.32  
4           0.23  0.28  0.64  0.28  0.73  0.87  0.53  0.59  0.41  0.01  0.34  0.17  0.05  0.16  0.32  
5           0.23  0.28  0.64  0.28  0.73  0.87  0.53  0.59  0.41  0.01  0.34  0.17  0.05  0.16  0.32  
6           0.23  0.28  0.64  0.28  0.73  0.87  0.53  0.59  0.41  0.01  0.34  0.17  0.05  0.16  0.32  
7           0.23  0.28  0.64  0.28  0.73  0.87  0.53  0.59  0.41  0.01  0.34  0.17  0.05  0.16  0.32  
8           0.23  0.28  0.64  0.28  0.73  0.87  0.53  0.59  0.41  0.01  0.34  0.17  0.05  0.16  0.32  
9           0.23  0.28  0.64  0.28  0.73  0.87  0.53  0.59  0.41  0.01  0.34  0.17  0.05  0.16  0.32  
10          0.23  0.28  0.64  0.28  0.73  0.87  0.53  0.59  0.41  0.01  0.34  0.17  0.05  0.16  0.32  
11          0.23  0.28  0.64  0.28  0.73  0.87  0.53  0.59  0.41  0.01  0.34  0.17  0.05  0.16  0.32  
12          0.23  0.28  0.64  0.28  0.73  0.87  0.53  0.59  0.41  0.01  0.34  0.17  0.05  0.16  0.32  
13          0.23  0.28  0.64  0.28  0.73  0.87  0.53  0.59  0.41  0.01  0.34  0.17  0.05  0.16  0.32  
14          0.23  0.28  0.64  0.28  0.73  0.87  0.53  0.59  0.41  0.01  0.34  0.17  0.05  0.16  0.32  
15          0.23  0.28  0.64  0.28  0.73  0.87  0.53  0.59  0.41  0.01  0.34  0.17  0.05  0.16  0.32  
16          0.23  0.28  0.64  0.28  0.73  0.87  0.53  0.59  0.41  0.01  0.34  0.17  0.05  0.16  0.32  
17          0.23  0.28  0.64  0.28  0.73  0.87  0.53  0.59  0.41  0.01  0.34  0.17  0.05  0.16  0.32  
18          0.23  0.28  0.64  0.28  0.73  0.87  0.53  0.59  0.41  0.01  0.34  0.17  0.05  0.16  0.32  
19          0.23  0.28  0.64  0.28  0.73  0.87  0.53  0.59  0.41  0.01  0.34  0.17  0.05  0.16  0.32  
20          0.23  0.28  0.64  0.28  0.73  0.87  0.53  0.59  0.41  0.01  0.34  0.17  0.05  0.16  0.32  
21          0.23  0.28  0.64  0.28  0.73  0.87  0.53  0.59  0.41  0.01  0.34  0.17  0.05  0.16  0.32  
22          0.23  0.28  0.64  0.28  0.73  0.87  0.53  0.59  0.41  0.01  0.34  0.17  0.05  0.16  0.32  
23          0.23  0.28  0.64  0.28  0.73  0.87  0.53  0.59  0.41  0.01  0.34  0.17  0.05  0.16  0.32  
24          0.23  0.28  0.64  0.28  0.73  0.87  0.53  0.59  0.41  0.01  0.34  0.17  0.05  0.16  0.32  
25          0.22  0.27  0.61  0.27  0.69  0.82  0.50  0.56  0.39  0.01  0.32  0.16  0.05  0.15  0.30  
26          0.22  0.27  0.61  0.27  0.69  0.82  0.50  0.56  0.39  0.01  0.32  0.16  0.05  0.15  0.30  
27          0.22  0.27  0.61  0.27  0.69  0.82  0.50  0.56  0.39  0.01  0.32  0.16  0.05  0.15  0.30  
28          0.22  0.27  0.61  0.27  0.69  0.82  0.50  0.56  0.39  0.01  0.32  0.16  0.05  0.15  0.30  
29          0.22  0.27  0.61  0.27  0.69  0.82  0.50  0.56  0.39  0.01  0.32  0.16  0.05  0.15  0.30  
30          0.22  0.27  0.61  0.27  0.69  0.82  0.50  0.56  0.39  0.01  0.32  0.16  0.05  0.15  0.30  
31          0.22  0.27  0.61  0.27  0.69  0.82  0.50  0.56  0.39  0.01  0.32  0.16  0.05  0.15  0.30  
32          0.22  0.27  0.61  0.27  0.69  0.82  0.50  0.56  0.39  0.01  0.32  0.16  0.05  0.15  0.30  
33          0.22  0.27  0.61  0.27  0.69  0.82  0.50  0.56  0.39  0.01  0.32  0.16  0.05  0.15  0.30  
34          0.23  0.28  0.64  0.28  0.73  0.87  0.53  0.59  0.41  0.01  0.34  0.17  0.05  0.16  0.32  
35          0.23  0.28  0.64  0.28  0.73  0.87  0.53  0.59  0.41  0.01  0.34  0.17  0.05  0.16  0.32  
36          0.23  0.28  0.64  0.28  0.73  0.87  0.53  0.59  0.41  0.01  0.34  0.17  0.05  0.16  0.32  
37          0.23  0.28  0.64  0.28  0.73  0.87  0.53  0.59  0.41  0.01  0.34  0.17  0.05  0.16  0.32  
38          0.23  0.28  0.64  0.28  0.73  0.87  0.53  0.59  0.41  0.01  0.34  0.17  0.05  0.16  0.32  
39          0.23  0.28  0.64  0.28  0.73  0.87  0.53  0.59  0.41  0.01  0.34  0.17  0.05  0.16  0.32  
40          0.23  0.28  0.64  0.28  0.73  0.87  0.53  0.59  0.41  0.01  0.34  0.17  0.05  0.16  0.32  
41          0.23  0.28  0.64  0.28  0.73  0.87  0.53  0.59  0.41  0.01  0.34  0.17  0.05  0.16  0.32  
42          0.23  0.28  0.64  0.28  0.73  0.87  0.53  0.59  0.41  0.01  0.34  0.17  0.05  0.16  0.32  
43          0.23  0.28  0.64  0.28  0.73  0.87  0.53  0.59  0.41  0.01  0.34  0.17  0.05  0.16  0.32  
44          0.23  0.28  0.64  0.28  0.73  0.87  0.53  0.59  0.41  0.01  0.34  0.17  0.05  0.16  0.32  
45          0.23  0.28  0.64  0.28  0.73  0.87  0.53  0.59  0.41  0.01  0.34  0.17  0.05  0.16  0.32  

[*,*,F3 ]:  K1    K2    K3    K4    K5    K6    K7    K8    K9    K10   K11   K12   K13   K14   K15   :=
1           0.26  0.12  0.72  0.32  0.84  0.77  0.58  0.57  0.45  0.02  0.35  0.18  0.06  0.19  0.28  
2           0.26  0.12  0.72  0.32  0.84  0.77  0.58  0.57  0.45  0.02  0.35  0.18  0.06  0.19  0.28  
3           0.26  0.12  0.72  0.32  0.84  0.77  0.58  0.57  0.45  0.02  0.35  0.18  0.06  0.19  0.28  
4           0.26  0.12  0.72  0.32  0.84  0.77  0.58  0.57  0.45  0.02  0.35  0.18  0.06  0.19  0.28  
5           0.26  0.12  0.72  0.32  0.84  0.77  0.58  0.57  0.45  0.02  0.35  0.18  0.06  0.19  0.28  
6           0.26  0.12  0.72  0.32  0.84  0.77  0.58  0.57  0.45  0.02  0.35  0.18  0.06  0.19  0.28  
7           0.26  0.12  0.72  0.32  0.84  0.77  0.58  0.57  0.45  0.02  0.35  0.18  0.06  0.19  0.28  
8           0.26  0.12  0.72  0.32  0.84  0.77  0.58  0.57  0.45  0.02  0.35  0.18  0.06  0.19  0.28  
9           0.26  0.12  0.72  0.32  0.84  0.77  0.58  0.57  0.45  0.02  0.35  0.18  0.06  0.19  0.28  
10          0.26  0.12  0.72  0.32  0.84  0.77  0.58  0.57  0.45  0.02  0.35  0.18  0.06  0.19  0.28  
11          0.26  0.12  0.72  0.32  0.84  0.77  0.58  0.57  0.45  0.02  0.35  0.18  0.06  0.19  0.28  
12          0.26  0.12  0.72  0.32  0.84  0.77  0.58  0.57  0.45  0.02  0.35  0.18  0.06  0.19  0.28  
13          0.26  0.12  0.72  0.32  0.84  0.77  0.58  0.57  0.45  0.02  0.35  0.18  0.06  0.19  0.28  
14          0.26  0.12  0.72  0.32  0.84  0.77  0.58  0.57  0.45  0.02  0.35  0.18  0.06  0.19  0.28  
15          0.26  0.12  0.72  0.32  0.84  0.77  0.58  0.57  0.45  0.02  0.35  0.18  0.06  0.19  0.28  
16          0.26  0.12  0.72  0.32  0.84  0.77  0.58  0.57  0.45  0.02  0.35  0.18  0.06  0.19  0.28  
17          0.26  0.12  0.72  0.32  0.84  0.77  0.58  0.57  0.45  0.02  0.35  0.18  0.06  0.19  0.28  
18          0.26  0.12  0.72  0.32  0.84  0.77  0.58  0.57  0.45  0.02  0.35  0.18  0.06  0.19  0.28  
19          0.26  0.12  0.72  0.32  0.84  0.77  0.58  0.57  0.45  0.02  0.35  0.18  0.06  0.19  0.28  
20          0.26  0.12  0.72  0.32  0.84  0.77  0.58  0.57  0.45  0.02  0.35  0.18  0.06  0.19  0.28  
21          0.26  0.12  0.72  0.32  0.84  0.77  0.58  0.57  0.45  0.02  0.35  0.18  0.06  0.19  0.28  
22          0.26  0.12  0.72  0.32  0.84  0.77  0.58  0.57  0.45  0.02  0.35  0.18  0.06  0.19  0.28  
23          0.26  0.12  0.72  0.32  0.84  0.77  0.58  0.57  0.45  0.02  0.35  0.18  0.06  0.19  0.28  
24          0.26  0.12  0.72  0.32  0.84  0.77  0.58  0.57  0.45  0.02  0.35  0.18  0.06  0.19  0.28  
25          0.25  0.12  0.68  0.30  0.80  0.73  0.55  0.54  0.42  0.02  0.33  0.17  0.06  0.18  0.27  
26          0.25  0.12  0.68  0.30  0.80  0.73  0.55  0.54  0.42  0.02  0.33  0.17  0.06  0.18  0.27  
27          0.25  0.12  0.68  0.30  0.80  0.73  0.55  0.54  0.42  0.02  0.33  0.17  0.06  0.18  0.27  
28          0.25  0.12  0.68  0.30  0.80  0.73  0.55  0.54  0.42  0.02  0.33  0.17  0.06  0.18  0.27  
29          0.25  0.12  0.68  0.30  0.80  0.73  0.55  0.54  0.42  0.02  0.33  0.17  0.06  0.18  0.27  
30          0.25  0.12  0.68  0.30  0.80  0.73  0.55  0.54  0.42  0.02  0.33  0.17  0.06  0.18  0.27  
31          0.25  0.12  0.68  0.30  0.80  0.73  0.55  0.54  0.42  0.02  0.33  0.17  0.06  0.18  0.27  
32          0.25  0.12  0.68  0.30  0.80  0.73  0.55  0.54  0.42  0.02  0.33  0.17  0.06  0.18  0.27  
33          0.25  0.12  0.68  0.30  0.80  0.73  0.55  0.54  0.42  0.02  0.33  0.17  0.06  0.18  0.27  
34          0.26  0.12  0.72  0.32  0.84  0.77  0.58  0.57  0.45  0.02  0.35  0.18  0.06  0.19  0.28  
35          0.26  0.12  0.72  0.32  0.84  0.77  0.58  0.57  0.45  0.02  0.35  0.18  0.06  0.19  0.28  
36          0.26  0.12  0.72  0.32  0.84  0.77  0.58  0.57  0.45  0.02  0.35  0.18  0.06  0.19  0.28  
37          0.26  0.12  0.72  0.32  0.84  0.77  0.58  0.57  0.45  0.02  0.35  0.18  0.06  0.19  0.28  
38          0.26  0.12  0.72  0.32  0.84  0.77  0.58  0.57  0.45  0.02  0.35  0.18  0.06  0.19  0.28  
39          0.26  0.12  0.72  0.32  0.84  0.77  0.58  0.57  0.45  0.02  0.35  0.18  0.06  0.19  0.28  
40          0.26  0.12  0.72  0.32  0.84  0.77  0.58  0.57  0.45  0.02  0.35  0.18  0.06  0.19  0.28  
41          0.26  0.12  0.72  0.32  0.84  0.77  0.58  0.57  0.45  0.02  0.35  0.18  0.06  0.19  0.28  
42          0.26  0.12  0.72  0.32  0.84  0.77  0.58  0.57  0.45  0.02  0.35  0.18  0.06  0.19  0.28  
43          0.26  0.12  0.72  0.32  0.84  0.77  0.58  0.57  0.45  0.02  0.35  0.18  0.06  0.19  0.28  
44          0.26  0.12  0.72  0.32  0.84  0.77  0.58  0.57  0.45  0.02  0.35  0.18  0.06  0.19  0.28  
45          0.26  0.12  0.72  0.32  0.84  0.77  0.58  0.57  0.45  0.02  0.35  0.18  0.06  0.19  0.28  
; # downloads resource k can do at front f in time t if starting or ending flight

param W: 
	F1        F2        F3        :=
1	462.39    462.39    462.39    
2	1849.55   1849.55   1849.55   
3	1849.55   1849.55   1849.55   
4	1849.55   1849.55   1849.55   
5	1849.55   1849.55   1849.55   
6	1849.55   1849.55   1849.55   
7	1849.55   1849.55   1849.55   
8	1849.55   1849.55   1849.55   
9	1849.55   1849.55   1849.55   
10	1849.55   1849.55   1849.55   
11	1849.55   1849.55   1849.55   
12	1849.55   1849.55   1849.55   
13	1849.55   1849.55   1849.55   
14	1849.55   1849.55   1849.55   
15	1849.55   1849.55   1849.55   
16	1849.55   1849.55   1849.55   
17	1849.55   1849.55   1849.55   
18	1849.55   1849.55   1849.55   
19	1849.55   1849.55   1849.55   
20	1849.55   1849.55   1849.55   
21	1849.55   1849.55   1849.55   
22	1849.55   1849.55   1849.55   
23	1849.55   1849.55   1849.55   
24	1849.55   1849.55   1849.55   
25	1849.55   1849.55   1849.55   
26	1849.55   1849.55   1849.55   
27	1849.55   1849.55   1849.55   
28	1849.55   1849.55   1849.55   
29	1849.55   1849.55   1849.55   
30	1849.55   1849.55   1849.55   
31	1849.55   1849.55   1849.55   
32	1849.55   1849.55   1849.55   
33	1849.55   1849.55   1849.55   
34	1849.55   1849.55   1849.55   
35	1849.55   1849.55   1849.55   
36	1849.55   1849.55   1849.55   
37	1849.55   1849.55   1849.55   
38	1849.55   1849.55   1849.55   
39	1849.55   1849.55   1849.55   
40	1849.55   1849.55   1849.55   
41	1849.55   1849.55   1849.55   
42	1849.55   1849.55   1849.55   
43	1849.55   1849.55   1849.55   
44	1849.55   1849.55   1849.55   
45	462.39    462.39    462.39    
; # water needed at front f in time slot t

param M := 100000000; 

param a1:= 10000000;

param a2:= 100;

param a3:= 0.0001;
